r = [
0,8,17,8,13,10,12,17,11,13,11,0
];
p = [
0,30,23,17,6,18,22,18,10,22,3,0
];
e = [
0,9,8,1,2,17,4,5,11,15,15,0
];
d = [
0,227,169,84,233,219,122,152,112,97,222,254
];
d_bar = [
0,254,190,99,238,235,142,168,121,117,225,254
];
w = [
0,0.333333333,0.380952381,0.066666667,0.4,1.0625,0.2,0.3125,1.222222222,0.75,5,0
];
